109
0 107 12 60 88 17 45 80 100 106 
7 76 3 63 70 42 55 39 57 71 
38 86 21 67 18 93 20 50 32 36 
64 89 51 30 97 8 82 105 101 27 
99 4 5 59 83 53 52 44 102 29 
72 62 9 28 79 77 40 108 68 43 
74 95 54 48 56 85 65 49 1 25 
34 11 23 96 37 10 22 33 13 87 
104 19 75 69 26 73 91 14 16 94 
84 15 6 78 24 41 35 98 2 90 
66 92 61 103 31 58 46 47 81 
